JulietBench/Juliet_Based_Patch_Bench/FFmpeg/CWE-189-Numeric-Errors/CVE_2015_6819_84afc6b70d24fc0bf686e43138c96cf60a9445fe/solverff_mjpeg_decode_frame_Snippet_patch1.smt2
; benchmark generated from python API
(set-info :status unknown)
(declare-fun R () (_ BitVec 32))
(declare-fun rsi () (_ BitVec 64))
(declare-fun rdi () (_ BitVec 64))
(assert
 (let (($x8055 (= (_ bv0 32) R)))
 (let ((?x8 ((_ extract 31 0) rsi)))
 (let (($x12 (= (_ bv0 32) ?x8)))
 (let ((?x6 ((_ extract 31 0) rdi)))
 (let ((?x249 (bvadd (_ bv4294967295 32) ?x6)))
 (let ((?x103 ((_ extract 31 31) ?x249)))
 (let ((?x164 (concat (concat (concat (concat (concat ?x103 ?x103) ?x103) ?x103) ?x103) ?x103)))
 (let ((?x305 (concat (concat (concat (concat (concat ?x164 ?x103) ?x103) ?x103) ?x103) ?x103)))
 (let ((?x3642 (concat (concat (concat (concat (concat ?x305 ?x103) ?x103) ?x103) ?x103) ?x103)))
 (let ((?x3496 (concat (concat (concat (concat (concat ?x3642 ?x103) ?x103) ?x103) ?x103) ?x103)))
 (let ((?x162 (concat (concat (concat (concat (concat ?x3496 ?x103) ?x103) ?x103) ?x103) ?x103)))
 (let ((?x101 (concat (concat (concat (concat (concat ?x162 ?x103) ?x103) ?x103) ?x103) ?x103)))
 (let ((?x139 (concat (concat ?x101 ?x103) ?x249)))
 (let ((?x158 (bvashr ?x139 (_ bv31 64))))
 (let ((?x64 ((_ extract 31 0) ?x158)))
 (let ((?x8222 (bvadd (_ bv3579139414 32) ?x64)))
 (let ((?x170 (bvmul (_ bv1431655766 64) ?x139)))
 (let ((?x71 ((_ extract 63 32) ?x170)))
 (let (($x9271 (= ?x71 ?x8222)))
 (let ((?x34 ((_ sign_extend 32) ?x6)))
 (let ((?x37 (bvadd ?x34 (_ bv18446744073709551615 64))))
 (let (($x9681 (bvule ?x37 (_ bv18446744071562067970 64))))
 (let (($x9530 (= (_ bv18446744071562067970 64) ?x37)))
 (let (($x9685 (bvsge (_ bv1 32) ?x6)))
 (let (($x5187 (and $x9685 $x9530 $x9681 $x9271 $x12 $x8055)))
 (let (($x5327 (not $x12)))
 (let ((?x10117 (bvadd (_ bv4294967292 32) ?x64)))
 (let (($x5007 (= ?x71 ?x10117)))
 (let ((?x99 (bvshl ?x34 (_ bv1 64))))
 (let ((?x9378 (bvadd ?x99 (_ bv18446744073709551614 64))))
 (let (($x16482 (bvule ?x9378 (_ bv18446744073709551592 64))))
 (let (($x16532 (= (_ bv18446744073709551592 64) ?x9378)))
 (let (($x15987 (and $x9685 $x16532 $x16482 $x5007 $x5327 $x8055)))
 (let (($x3882 (or $x15987 $x5187)))
 (let (($x16092 (not $x3882)))
 (let (($x260 (= (_ bv2147483648 32) ?x6)))
 (let (($x357 (bvule ?x37 (_ bv18446744071562067967 64))))
 (let (($x2776 (and $x357 $x260 $x12 $x8055)))
 (let (($x7207 (= (_ bv4294967291 32) ?x6)))
 (let (($x133 (bvule ?x9378 (_ bv18446744073709551604 64))))
 (let (($x96 (= (_ bv18446744073709551604 64) ?x9378)))
 (let (($x2302 (and $x96 $x133 $x7207 $x5327 $x8055)))
 (let (($x16102 (or $x2302 $x2776)))
 (let (($x10870 (not $x16102)))
 (let (($x10855 (and $x10870 $x16092)))
 (let (($x856 (and $x16102 $x3882)))
 (let (($x4828 (or $x856 $x10855)))
 (not $x4828)))))))))))))))))))))))))))))))))))))))))))))))))
(check-sat)
